2
21
31
40	34
1	2	8	9	15	8	
2	1	19	4	
3	2	25	3	34	2	
4	1	9	7	
5	1	11	5	
6	2	30	2	26	2	
7	1	19	5	
8	2	9	7	5	13	
9	1	22	3	
10	1	19	2	
11	2	10	8	16	9	
12	2	6	13	23	3	
13	1	8	10	
14	1	6	11	
15	1	20	3	
16	1	22	3	
17	2	12	5	6	10	
18	2	6	15	20	3	
19	1	26	3	
20	2	26	3	34	3	
21	2	14	9	9	5	
